Number of options: 70
Size of codes: 100
0 21 42 67 68 51 56 69 44 46 10 51 41 6 17 67 33 68 48 7 3 51 58 29 28 65 32 44 59 66 0 42 11 44 25 29 14 28 13 67 44 21 54 36 65 35 56 8 1 51 44 27 55 33 68 28 63 49 53 26 60 57 58 7 62 18 57 8 27 54 45 30 13 43 36 13 15 6 11 48 7 20 31 16 26 41 55 31 9 40 58 40 52 26 65 67 63 49 17 56 
Size of probabilities: 100
0.05 0.51 0.33 0.03 0.09 0.04 0.33 0.1 0.5 0.03 0.75 0.05 0.07 0.03 0.1 0.04 0.21 0.11 0.54 0.1 0.1 0.05 0.29 0.39 0.16 0.06 0.24 0.3 0.07 0.33 0.02 0.17 0.07 0.33 0.41 0.3 0.34 0.13 0.2 0.03 0.45 0.35 0.08 0.02 0.1 0.11 0.68 0.06 0.06 0.08 0.42 0.06 0.35 0.11 0.06 0.15 0.15 0.26 0.18 0.26 0.06 0.23 0.15 0.04 0.53 0.22 0.49 0.05 0.11 0.13 0.24 0.49 0.19 0.06 0.02 0.23 0.21 0.03 0.12 0.41 0.05 0.37 0.32 0.08 0.17 0.06 0.44 0.4 0.07 0.03 0.36 0.05 0.07 0.35 0.17 0.03 0.16 0.28 0.1 0.44 
Number of assortments: 20
Sizes of assortments: 5 5 5 5 5 5 5 5 5 5 5 5 5 5 5 5 5 5 5 5 
-------------------Iteration: 1
CPXPARAM_MIP_Display                             1
CPXPARAM_MIP_Strategy_CallbackReducedLP          0
Tried aggregator 1 time.
LP Presolve eliminated 101 rows and 201 columns.
All rows and columns eliminated.
Presolve time = 0.00 sec. (0.04 ticks)
***********************************************************
Objective value of restricted master problem: 34.3
Lamda: 1 
***********************************************************
CPXPARAM_MIP_Display                             1
CPXPARAM_MIP_Strategy_CallbackReducedLP          0
Tried aggregator 2 times.
MIP Presolve eliminated 221375 rows and 0 columns.
Aggregator did 2415 substitutions.
Reduced MIP has 109900 rows, 2515 columns, and 329340 nonzeros.
Reduced MIP has 2415 binaries, 0 generals, 0 SOSs, and 0 indicators.
Presolve time = 1.87 sec. (725.43 ticks)
Probing time = 0.21 sec. (5.26 ticks)
Tried aggregator 1 time.
Reduced MIP has 109900 rows, 2515 columns, and 329340 nonzeros.
Reduced MIP has 2415 binaries, 0 generals, 0 SOSs, and 0 indicators.
Presolve time = 0.39 sec. (144.70 ticks)
Probing time = 0.26 sec. (5.85 ticks)
MIP emphasis: balance optimality and feasibility.
MIP search method: dynamic search.
Parallel mode: deterministic, using up to 8 threads.

Node log . . .
Best integer =   0.000000e+00  Node =       0  Best node =  -1.000000e+02
Best integer =  -4.000000e+01  Node =       0  Best node =  -1.000000e+02
***********************************************************

***********************************************************
-------------------Iteration: 2
CPXPARAM_MIP_Display                             1
CPXPARAM_MIP_Strategy_CallbackReducedLP          0
Tried aggregator 1 time.
LP Presolve eliminated 60 rows and 120 columns.
Aggregator did 1 substitutions.
Reduced LP has 40 rows, 81 columns, and 120 nonzeros.
Presolve time = 0.00 sec. (0.07 ticks)
Initializing dual steep norms . . .

Iteration log . . .
Iteration:     1   Dual objective     =            13.120000
***********************************************************
Objective value of restricted master problem: 24.76
Lamda: 0.35 0.65 
***********************************************************
CPXPARAM_MIP_Display                             1
CPXPARAM_MIP_Strategy_CallbackReducedLP          0
Tried aggregator 2 times.
MIP Presolve eliminated 221375 rows and 0 columns.
Aggregator did 2415 substitutions.
Reduced MIP has 109900 rows, 2515 columns, and 329340 nonzeros.
Reduced MIP has 2415 binaries, 0 generals, 0 SOSs, and 0 indicators.
Presolve time = 2.14 sec. (725.43 ticks)
Probing time = 0.25 sec. (5.26 ticks)
Tried aggregator 1 time.
Reduced MIP has 109900 rows, 2515 columns, and 329340 nonzeros.
Reduced MIP has 2415 binaries, 0 generals, 0 SOSs, and 0 indicators.
Presolve time = 0.65 sec. (144.71 ticks)
Probing time = 0.25 sec. (5.85 ticks)
MIP emphasis: balance optimality and feasibility.
MIP search method: dynamic search.
Parallel mode: deterministic, using up to 8 threads.

Node log . . .
Best integer =   0.000000e+00  Node =       0  Best node =  -8.000000e+01
Best integer =  -8.000000e+00  Node =       0  Best node =  -8.000000e+01
Best integer =  -2.600000e+01  Node =       0  Best node =  -3.800000e+01
Best integer =  -3.800000e+01  Node =       0  Best node =  -3.800000e+01
***********************************************************

***********************************************************
-------------------Iteration: 3
CPXPARAM_MIP_Display                             1
CPXPARAM_MIP_Strategy_CallbackReducedLP          0
Tried aggregator 1 time.
LP Presolve eliminated 41 rows and 82 columns.
Reduced LP has 60 rows, 121 columns, and 181 nonzeros.
Presolve time = 0.00 sec. (0.06 ticks)
Initializing dual steep norms . . .

Iteration log . . .
Iteration:     1   Dual objective     =             9.020000
***********************************************************
Objective value of restricted master problem: 19.44
Lamda: 0.26 0.44 0.3 
***********************************************************
CPXPARAM_MIP_Display                             1
CPXPARAM_MIP_Strategy_CallbackReducedLP          0
Tried aggregator 2 times.
MIP Presolve eliminated 221375 rows and 0 columns.
Aggregator did 2415 substitutions.
Reduced MIP has 109900 rows, 2515 columns, and 329340 nonzeros.
Reduced MIP has 2415 binaries, 0 generals, 0 SOSs, and 0 indicators.
Presolve time = 2.27 sec. (725.43 ticks)
Probing time = 0.20 sec. (5.26 ticks)
Tried aggregator 1 time.
Reduced MIP has 109900 rows, 2515 columns, and 329340 nonzeros.
Reduced MIP has 2415 binaries, 0 generals, 0 SOSs, and 0 indicators.
Presolve time = 0.60 sec. (144.71 ticks)
Probing time = 0.29 sec. (5.85 ticks)
MIP emphasis: balance optimality and feasibility.
MIP search method: dynamic search.
Parallel mode: deterministic, using up to 8 threads.

Node log . . .
Best integer =   0.000000e+00  Node =       0  Best node =  -6.400000e+01
Best integer =  -6.000000e+00  Node =       0  Best node =  -6.400000e+01
Best integer =  -3.400000e+01  Node =       0  Best node =  -3.400000e+01
***********************************************************

***********************************************************
-------------------Iteration: 4
CPXPARAM_MIP_Display                             1
CPXPARAM_MIP_Strategy_CallbackReducedLP          0
Tried aggregator 1 time.
LP Presolve eliminated 26 rows and 52 columns.
Reduced LP has 75 rows, 152 columns, and 232 nonzeros.
Presolve time = 0.00 sec. (0.07 ticks)
Initializing dual steep norms . . .

Iteration log . . .
Iteration:     1   Dual objective     =             5.240000
Iteration:    62   Dual objective     =            13.850000
***********************************************************
Objective value of restricted master problem: 14
Lamda: 0.1 0.33 0.22 0.35 
***********************************************************
CPXPARAM_MIP_Display                             1
CPXPARAM_MIP_Strategy_CallbackReducedLP          0
Tried aggregator 2 times.
MIP Presolve eliminated 221375 rows and 0 columns.
Aggregator did 2415 substitutions.
Reduced MIP has 109900 rows, 2515 columns, and 329340 nonzeros.
Reduced MIP has 2415 binaries, 0 generals, 0 SOSs, and 0 indicators.
Presolve time = 1.96 sec. (725.57 ticks)
Probing time = 0.28 sec. (5.26 ticks)
Tried aggregator 1 time.
Reduced MIP has 109900 rows, 2515 columns, and 329340 nonzeros.
Reduced MIP has 2415 binaries, 0 generals, 0 SOSs, and 0 indicators.
Presolve time = 0.50 sec. (144.69 ticks)
Probing time = 0.20 sec. (5.85 ticks)
MIP emphasis: balance optimality and feasibility.
MIP search method: dynamic search.
Parallel mode: deterministic, using up to 8 threads.

Node log . . .
Best integer =   0.000000e+00  Node =       0  Best node =  -5.400000e+01
Best integer =  -2.800000e+01  Node =       0  Best node =  -2.800000e+01
***********************************************************

***********************************************************
-------------------Iteration: 5
CPXPARAM_MIP_Display                             1
CPXPARAM_MIP_Strategy_CallbackReducedLP          0
Tried aggregator 1 time.
LP Presolve eliminated 16 rows and 32 columns.
Reduced LP has 85 rows, 173 columns, and 273 nonzeros.
Presolve time = 0.00 sec. (0.07 ticks)
Initializing dual steep norms . . .

Iteration log . . .
Iteration:     1   Dual objective     =             2.190000
Iteration:    62   Dual objective     =             9.185000
***********************************************************
Objective value of restricted master problem: 9.6
Lamda: 0.07 0.24 0.13 0.28 0.28 
***********************************************************
CPXPARAM_MIP_Display                             1
CPXPARAM_MIP_Strategy_CallbackReducedLP          0
Tried aggregator 2 times.
MIP Presolve eliminated 221375 rows and 0 columns.
Aggregator did 2415 substitutions.
Reduced MIP has 109900 rows, 2515 columns, and 329340 nonzeros.
Reduced MIP has 2415 binaries, 0 generals, 0 SOSs, and 0 indicators.
Presolve time = 2.03 sec. (725.43 ticks)
Probing time = 0.29 sec. (5.26 ticks)
Tried aggregator 1 time.
Reduced MIP has 109900 rows, 2515 columns, and 329340 nonzeros.
Reduced MIP has 2415 binaries, 0 generals, 0 SOSs, and 0 indicators.
Presolve time = 0.54 sec. (144.71 ticks)
Probing time = 0.21 sec. (5.85 ticks)
MIP emphasis: balance optimality and feasibility.
MIP search method: dynamic search.
Parallel mode: deterministic, using up to 8 threads.

Node log . . .
Best integer =   0.000000e+00  Node =       0  Best node =  -5.400000e+01
Best integer =  -4.000000e+00  Node =       0  Best node =  -5.400000e+01
Best integer =  -1.000000e+01  Node =       0  Best node =  -2.200000e+01
Best integer =  -2.200000e+01  Node =       0  Best node =  -2.200000e+01
***********************************************************

***********************************************************
-------------------Iteration: 6
CPXPARAM_MIP_Display                             1
CPXPARAM_MIP_Strategy_CallbackReducedLP          0
Tried aggregator 1 time.
LP Presolve eliminated 12 rows and 24 columns.
Reduced LP has 89 rows, 182 columns, and 302 nonzeros.
Presolve time = 0.00 sec. (0.07 ticks)
Initializing dual steep norms . . .

Iteration log . . .
Iteration:     1   Dual objective     =             1.420000
Iteration:    62   Dual objective     =             7.520000
***********************************************************
Objective value of restricted master problem: 7.86
Lamda: 0.05 0.24 0.08 0.17 0.29 0.17 
***********************************************************
CPXPARAM_MIP_Display                             1
CPXPARAM_MIP_Strategy_CallbackReducedLP          0
Tried aggregator 2 times.
MIP Presolve eliminated 221375 rows and 0 columns.
Aggregator did 2415 substitutions.
Reduced MIP has 109900 rows, 2515 columns, and 329340 nonzeros.
Reduced MIP has 2415 binaries, 0 generals, 0 SOSs, and 0 indicators.
Presolve time = 2.10 sec. (725.47 ticks)
Probing time = 0.19 sec. (5.26 ticks)
Tried aggregator 1 time.
Reduced MIP has 109900 rows, 2515 columns, and 329340 nonzeros.
Reduced MIP has 2415 binaries, 0 generals, 0 SOSs, and 0 indicators.
Presolve time = 0.47 sec. (144.69 ticks)
Probing time = 0.20 sec. (5.85 ticks)
MIP emphasis: balance optimality and feasibility.
MIP search method: dynamic search.
Parallel mode: deterministic, using up to 8 threads.

Node log . . .
Best integer =   0.000000e+00  Node =       0  Best node =  -5.200000e+01
Best integer =  -2.000000e+00  Node =       0  Best node =  -5.200000e+01
Best integer =  -2.200000e+01  Node =       0  Best node =  -2.200000e+01
***********************************************************

***********************************************************
-------------------Iteration: 7
CPXPARAM_MIP_Display                             1
CPXPARAM_MIP_Strategy_CallbackReducedLP          0
Tried aggregator 1 time.
LP Presolve eliminated 8 rows and 16 columns.
Reduced LP has 93 rows, 191 columns, and 331 nonzeros.
Presolve time = 0.00 sec. (0.08 ticks)

Iteration log . . .
Iteration:     1   Dual objective     =             0.560000
Iteration:    62   Dual objective     =             6.270000
***********************************************************
Objective value of restricted master problem: 7.04
Lamda: 0.03 0.21 0.06 0.15 0.3 0.17 0.08 
***********************************************************
CPXPARAM_MIP_Display                             1
CPXPARAM_MIP_Strategy_CallbackReducedLP          0
Tried aggregator 2 times.
MIP Presolve eliminated 221375 rows and 0 columns.
Aggregator did 2415 substitutions.
Reduced MIP has 109900 rows, 2515 columns, and 329340 nonzeros.
Reduced MIP has 2415 binaries, 0 generals, 0 SOSs, and 0 indicators.
Presolve time = 1.65 sec. (725.43 ticks)
Probing time = 0.29 sec. (5.26 ticks)
Tried aggregator 1 time.
Reduced MIP has 109900 rows, 2515 columns, and 329340 nonzeros.
Reduced MIP has 2415 binaries, 0 generals, 0 SOSs, and 0 indicators.
Presolve time = 0.39 sec. (144.71 ticks)
Probing time = 0.22 sec. (5.85 ticks)
MIP emphasis: balance optimality and feasibility.
MIP search method: dynamic search.
Parallel mode: deterministic, using up to 8 threads.

Node log . . .
Best integer =   0.000000e+00  Node =       0  Best node =  -5.100000e+01
Best integer =  -2.000000e+00  Node =       0  Best node =  -5.100000e+01
Best integer =  -1.800000e+01  Node =       0  Best node =  -2.000000e+01
Best integer =  -2.000000e+01  Node =       0  Best node =  -2.000000e+01
***********************************************************

***********************************************************
-------------------Iteration: 8
CPXPARAM_MIP_Display                             1
CPXPARAM_MIP_Strategy_CallbackReducedLP          0
Tried aggregator 1 time.
LP Presolve eliminated 7 rows and 14 columns.
Reduced LP has 94 rows, 194 columns, and 354 nonzeros.
Presolve time = 0.00 sec. (0.08 ticks)

Iteration log . . .
Iteration:     1   Dual objective     =             0.500000
Iteration:    62   Dual objective     =             5.880000
***********************************************************
Objective value of restricted master problem: 6.56
Lamda: 0 0.19 0.06 0.15 0.31 0.17 0.07 0.05 
***********************************************************
CPXPARAM_MIP_Display                             1
CPXPARAM_MIP_Strategy_CallbackReducedLP          0
Tried aggregator 2 times.
MIP Presolve eliminated 221375 rows and 0 columns.
Aggregator did 2415 substitutions.
Reduced MIP has 109900 rows, 2515 columns, and 329340 nonzeros.
Reduced MIP has 2415 binaries, 0 generals, 0 SOSs, and 0 indicators.
Presolve time = 2.23 sec. (725.47 ticks)
Probing time = 0.27 sec. (5.26 ticks)
Tried aggregator 1 time.
Reduced MIP has 109900 rows, 2515 columns, and 329340 nonzeros.
Reduced MIP has 2415 binaries, 0 generals, 0 SOSs, and 0 indicators.
Presolve time = 0.73 sec. (144.70 ticks)
Probing time = 0.26 sec. (5.85 ticks)
MIP emphasis: balance optimality and feasibility.
MIP search method: dynamic search.
Parallel mode: deterministic, using up to 8 threads.

Node log . . .
Best integer =   4.000000e+00  Node =       0  Best node =  -4.400000e+01
Best integer =   0.000000e+00  Node =       0  Best node =  -4.400000e+01
Best integer =  -4.000000e+00  Node =       0  Best node =  -4.400000e+01
Best integer =  -2.400000e+01  Node =       0  Best node =  -2.400000e+01
***********************************************************

***********************************************************
-------------------Iteration: 9
CPXPARAM_MIP_Display                             1
CPXPARAM_MIP_Strategy_CallbackReducedLP          0
Tried aggregator 1 time.
LP Presolve eliminated 5 rows and 10 columns.
Reduced LP has 96 rows, 199 columns, and 379 nonzeros.
Presolve time = 0.00 sec. (0.08 ticks)

Iteration log . . .
Iteration:     1   Dual objective     =             0.220000
Iteration:    62   Dual objective     =             3.950000
***********************************************************
Objective value of restricted master problem: 4.74
Lamda: 0 0.11 0.055 0.13 0.245 0.14 0.1 0.055 0.165 
***********************************************************
CPXPARAM_MIP_Display                             1
CPXPARAM_MIP_Strategy_CallbackReducedLP          0
Tried aggregator 2 times.
MIP Presolve eliminated 221375 rows and 0 columns.
Aggregator did 2415 substitutions.
Reduced MIP has 109900 rows, 2515 columns, and 329340 nonzeros.
Reduced MIP has 2415 binaries, 0 generals, 0 SOSs, and 0 indicators.
Presolve time = 3.23 sec. (725.43 ticks)
Probing time = 0.44 sec. (5.26 ticks)
Tried aggregator 1 time.
Reduced MIP has 109900 rows, 2515 columns, and 329340 nonzeros.
Reduced MIP has 2415 binaries, 0 generals, 0 SOSs, and 0 indicators.
Presolve time = 0.50 sec. (144.71 ticks)
Probing time = 0.37 sec. (5.85 ticks)
MIP emphasis: balance optimality and feasibility.
MIP search method: dynamic search.
Parallel mode: deterministic, using up to 8 threads.

Node log . . .
Best integer =   1.000000e+01  Node =       0  Best node =  -4.700000e+01
Best integer =   0.000000e+00  Node =       0  Best node =  -4.700000e+01
Best integer =  -4.000000e+00  Node =       0  Best node =  -4.700000e+01
Best integer =  -1.800000e+01  Node =       0  Best node =  -1.800000e+01
***********************************************************

***********************************************************
-------------------Iteration: 10
CPXPARAM_MIP_Display                             1
CPXPARAM_MIP_Strategy_CallbackReducedLP          0
Tried aggregator 1 time.
LP Presolve eliminated 5 rows and 10 columns.
Reduced LP has 96 rows, 200 columns, and 400 nonzeros.
Presolve time = 0.00 sec. (0.08 ticks)

Iteration log . . .
Iteration:     1   Dual objective     =             0.220000
Iteration:    62   Dual objective     =             3.430000
***********************************************************
Objective value of restricted master problem: 4
Lamda: 0 0.11 0.03 0.09 0.22 0.12 0.12 0.05 0.18 0.08 
***********************************************************
CPXPARAM_MIP_Display                             1
CPXPARAM_MIP_Strategy_CallbackReducedLP          0
Tried aggregator 2 times.
MIP Presolve eliminated 221375 rows and 0 columns.
Aggregator did 2415 substitutions.
Reduced MIP has 109900 rows, 2515 columns, and 329340 nonzeros.
Reduced MIP has 2415 binaries, 0 generals, 0 SOSs, and 0 indicators.
Presolve time = 2.37 sec. (725.43 ticks)
Probing time = 0.23 sec. (5.26 ticks)
Tried aggregator 1 time.
Reduced MIP has 109900 rows, 2515 columns, and 329340 nonzeros.
Reduced MIP has 2415 binaries, 0 generals, 0 SOSs, and 0 indicators.
Presolve time = 0.78 sec. (144.70 ticks)
Probing time = 0.24 sec. (5.85 ticks)
MIP emphasis: balance optimality and feasibility.
MIP search method: dynamic search.
Parallel mode: deterministic, using up to 8 threads.

Node log . . .
Best integer =   8.000000e+00  Node =       0  Best node =  -4.240000e+01
Best integer =   0.000000e+00  Node =       0  Best node =  -4.240000e+01
Best integer =  -1.900000e+01  Node =       0  Best node =  -1.900000e+01
***********************************************************

***********************************************************
-------------------Iteration: 11
CPXPARAM_MIP_Display                             1
CPXPARAM_MIP_Strategy_CallbackReducedLP          0
Tried aggregator 1 time.
LP Presolve eliminated 1 rows and 2 columns.
Reduced LP has 100 rows, 209 columns, and 429 nonzeros.
Presolve time = 0.00 sec. (0.08 ticks)

Iteration log . . .
Iteration:     1   Dual objective     =             0.050000
Iteration:    62   Dual objective     =             2.830000
***********************************************************
Objective value of restricted master problem: 3.46
Lamda: 0 0.1 0.03 0.106 0.208 0.12 0.1 0.048 0.168 0.076 0.044 
***********************************************************
CPXPARAM_MIP_Display                             1
CPXPARAM_MIP_Strategy_CallbackReducedLP          0
Tried aggregator 2 times.
MIP Presolve eliminated 221375 rows and 0 columns.
Aggregator did 2415 substitutions.
Reduced MIP has 109900 rows, 2515 columns, and 329340 nonzeros.
Reduced MIP has 2415 binaries, 0 generals, 0 SOSs, and 0 indicators.
Presolve time = 2.45 sec. (725.49 ticks)
Probing time = 0.39 sec. (5.26 ticks)
Tried aggregator 1 time.
Reduced MIP has 109900 rows, 2515 columns, and 329340 nonzeros.
Reduced MIP has 2415 binaries, 0 generals, 0 SOSs, and 0 indicators.
Presolve time = 0.70 sec. (144.70 ticks)
Probing time = 0.29 sec. (5.85 ticks)
MIP emphasis: balance optimality and feasibility.
MIP search method: dynamic search.
Parallel mode: deterministic, using up to 8 threads.

Node log . . .
Best integer =   2.000000e+00  Node =       0  Best node =  -4.300000e+01
Best integer =   0.000000e+00  Node =       0  Best node =  -4.300000e+01
Best integer =  -8.000000e+00  Node =       0  Best node =  -1.800000e+01
Best integer =  -1.800000e+01  Node =       0  Best node =  -1.800000e+01
***********************************************************

***********************************************************
-------------------Iteration: 12
CPXPARAM_MIP_Display                             1
CPXPARAM_MIP_Strategy_CallbackReducedLP          0
Tried aggregator 1 time.
LP Presolve eliminated 1 rows and 2 columns.
Reduced LP has 100 rows, 210 columns, and 450 nonzeros.
Presolve time = 0.00 sec. (0.09 ticks)

Iteration log . . .
Iteration:     1   Dual objective     =             0.050000
Iteration:    62   Dual objective     =             2.553333
***********************************************************
Objective value of restricted master problem: 2.96
Lamda: 0 0.1 0.02 0.08 0.19 0.11 0.08 0.05 0.17 0.08 0.06 0.06 
***********************************************************
CPXPARAM_MIP_Display                             1
CPXPARAM_MIP_Strategy_CallbackReducedLP          0
Tried aggregator 2 times.
MIP Presolve eliminated 221375 rows and 0 columns.
Aggregator did 2415 substitutions.
Reduced MIP has 109900 rows, 2515 columns, and 329340 nonzeros.
Reduced MIP has 2415 binaries, 0 generals, 0 SOSs, and 0 indicators.
Presolve time = 2.16 sec. (725.48 ticks)
Probing time = 0.22 sec. (5.26 ticks)
Tried aggregator 1 time.
Reduced MIP has 109900 rows, 2515 columns, and 329340 nonzeros.
Reduced MIP has 2415 binaries, 0 generals, 0 SOSs, and 0 indicators.
Presolve time = 0.46 sec. (144.58 ticks)
Probing time = 0.34 sec. (5.85 ticks)
MIP emphasis: balance optimality and feasibility.
MIP search method: dynamic search.
Parallel mode: deterministic, using up to 8 threads.

Node log . . .
Best integer =   6.000000e+00  Node =       0  Best node =  -3.700000e+01
Best integer =   0.000000e+00  Node =       0  Best node =  -3.700000e+01
Best integer =  -1.800000e+01  Node =       0  Best node =  -2.000000e+01
Best integer =  -2.000000e+01  Node =       0  Best node =  -2.000000e+01
***********************************************************

***********************************************************
-------------------Iteration: 13
CPXPARAM_MIP_Display                             1
CPXPARAM_MIP_Strategy_CallbackReducedLP          0
Tried aggregator 1 time.
LP Presolve eliminated 1 rows and 2 columns.
Reduced LP has 100 rows, 211 columns, and 471 nonzeros.
Presolve time = 0.00 sec. (0.09 ticks)

Iteration log . . .
Iteration:     1   Dual objective     =             0.050000
Iteration:    62   Dual objective     =             2.180000
***********************************************************
Objective value of restricted master problem: 2.67
Lamda: 0 0.1 0.00333333 0.08 0.183333 0.11 0.065 0.0483333 0.165 0.0966667 0.05 0.0633333 0.035 
***********************************************************
CPXPARAM_MIP_Display                             1
CPXPARAM_MIP_Strategy_CallbackReducedLP          0
Tried aggregator 2 times.
MIP Presolve eliminated 221375 rows and 0 columns.
Aggregator did 2415 substitutions.
Reduced MIP has 109900 rows, 2515 columns, and 329340 nonzeros.
Reduced MIP has 2415 binaries, 0 generals, 0 SOSs, and 0 indicators.
Presolve time = 2.09 sec. (725.34 ticks)
Probing time = 0.26 sec. (5.26 ticks)
Tried aggregator 1 time.
Reduced MIP has 109900 rows, 2515 columns, and 329340 nonzeros.
Reduced MIP has 2415 binaries, 0 generals, 0 SOSs, and 0 indicators.
Presolve time = 0.47 sec. (144.70 ticks)
Probing time = 0.32 sec. (5.85 ticks)
MIP emphasis: balance optimality and feasibility.
MIP search method: dynamic search.
Parallel mode: deterministic, using up to 8 threads.

Node log . . .
Best integer =   4.000000e+00  Node =       0  Best node =  -3.800000e+01
Best integer =   0.000000e+00  Node =       0  Best node =  -3.800000e+01
Best integer =  -1.900000e+01  Node =       0  Best node =  -1.900000e+01
***********************************************************

***********************************************************
